\ Model Scheduler
\ LP format - for model browsing. Use MPS format to capture full model detail.
Minimize
  2691 x[0,0] + 2692 x[0,1] + 2693 x[0,2] + 2694 x[0,3] + 2695 x[0,4]
   + 2696 x[0,5] + 2697 x[0,6] + 2698 x[0,7] + 2699 x[0,8] + 2700 x[0,9]
   + 2691 x[1,0] + 2692 x[1,1] + 2693 x[1,2] + 2694 x[1,3] + 2695 x[1,4]
   + 2696 x[1,5] + 2697 x[1,6] + 2698 x[1,7] + 2699 x[1,8] + 2700 x[1,9]
   + 2691 x[2,0] + 2692 x[2,1] + 2693 x[2,2] + 2694 x[2,3] + 2695 x[2,4]
   + 2696 x[2,5] + 2697 x[2,6] + 2698 x[2,7] + 2699 x[2,8] + 2700 x[2,9]
   + 2691 x[3,0] + 2692 x[3,1] + 2693 x[3,2] + 2694 x[3,3] + 2695 x[3,4]
   + 2696 x[3,5] + 2697 x[3,6] + 2698 x[3,7] + 2699 x[3,8] + 2700 x[3,9]
   + 2691 x[4,0] + 2692 x[4,1] + 2693 x[4,2] + 2694 x[4,3] + 2695 x[4,4]
   + 2696 x[4,5] + 2697 x[4,6] + 2698 x[4,7] + 2699 x[4,8] + 2700 x[4,9]
   + 2691 x[5,0] + 2692 x[5,1] + 2693 x[5,2] + 2694 x[5,3] + 2695 x[5,4]
   + 2696 x[5,5] + 2697 x[5,6] + 2698 x[5,7] + 2699 x[5,8] + 2700 x[5,9]
   + 2691 x[6,0] + 2692 x[6,1] + 2693 x[6,2] + 2694 x[6,3] + 2695 x[6,4]
   + 2696 x[6,5] + 2697 x[6,6] + 2698 x[6,7] + 2699 x[6,8] + 2700 x[6,9]
   + 2691 x[7,0] + 2692 x[7,1] + 2693 x[7,2] + 2694 x[7,3] + 2695 x[7,4]
   + 2696 x[7,5] + 2697 x[7,6] + 2698 x[7,7] + 2699 x[7,8] + 2700 x[7,9]
   + 2691 x[8,0] + 2692 x[8,1] + 2693 x[8,2] + 2694 x[8,3] + 2695 x[8,4]
   + 2696 x[8,5] + 2697 x[8,6] + 2698 x[8,7] + 2699 x[8,8] + 2700 x[8,9]
   + 31 s[0] + 27.5 s[1] + 33 s[2] + 9 s[3] + 0.5 s[4] + 2 s[5] + 2 s[6]
   + s[7] + 22 s[8]
Subject To
 R0: x[0,0] + x[0,1] + x[0,2] + x[0,3] + x[0,4] + x[0,5] + x[0,6] + x[0,7]
   + x[0,8] + x[0,9] = 62
 R1: x[1,0] + x[1,1] + x[1,2] + x[1,3] + x[1,4] + x[1,5] + x[1,6] + x[1,7]
   + x[1,8] + x[1,9] = 55
 R2: x[2,0] + x[2,1] + x[2,2] + x[2,3] + x[2,4] + x[2,5] + x[2,6] + x[2,7]
   + x[2,8] + x[2,9] = 66
 R3: x[3,0] + x[3,1] + x[3,2] + x[3,3] + x[3,4] + x[3,5] + x[3,6] + x[3,7]
   + x[3,8] + x[3,9] = 18
 R4: x[4,0] + x[4,1] + x[4,2] + x[4,3] + x[4,4] + x[4,5] + x[4,6] + x[4,7]
   + x[4,8] + x[4,9] = 1
 R5: x[5,0] + x[5,1] + x[5,2] + x[5,3] + x[5,4] + x[5,5] + x[5,6] + x[5,7]
   + x[5,8] + x[5,9] = 4
 R6: x[6,0] + x[6,1] + x[6,2] + x[6,3] + x[6,4] + x[6,5] + x[6,6] + x[6,7]
   + x[6,8] + x[6,9] = 4
 R7: x[7,0] + x[7,1] + x[7,2] + x[7,3] + x[7,4] + x[7,5] + x[7,6] + x[7,7]
   + x[7,8] + x[7,9] = 2
 R8: x[8,0] + x[8,1] + x[8,2] + x[8,3] + x[8,4] + x[8,5] + x[8,6] + x[8,7]
   + x[8,8] + x[8,9] = 44
 R9: x[0,0] + x[1,0] + x[2,0] + x[3,0] + x[4,0] + x[5,0] + x[6,0] + x[7,0]
   + x[8,0] - b <= 0
 R10: b <= 16
 R11: s[0] >= 0
 R12: - x[0,0] + s[0] >= 0
 R13: s[1] >= 0
 R14: - x[1,0] + s[1] >= 0
 R15: s[2] >= 0
 R16: - x[2,0] + s[2] >= 0
 R17: s[3] >= 0
 R18: - x[3,0] + s[3] >= 0
 R19: s[4] >= 0
 R20: - x[4,0] + s[4] >= 0
 R21: s[5] >= 0
 R22: - x[5,0] + s[5] >= 0
 R23: s[6] >= 0
 R24: - x[6,0] + s[6] >= 0
 R25: s[7] >= 0
 R26: - x[7,0] + s[7] >= 0
 R27: s[8] >= 0
 R28: - x[8,0] + s[8] >= 0
Bounds
Binaries
 x[0,0] x[0,1] x[0,2] x[0,3] x[0,4] x[0,5] x[0,6] x[0,7] x[0,8] x[0,9]
 x[1,0] x[1,1] x[1,2] x[1,3] x[1,4] x[1,5] x[1,6] x[1,7] x[1,8] x[1,9]
 x[2,0] x[2,1] x[2,2] x[2,3] x[2,4] x[2,5] x[2,6] x[2,7] x[2,8] x[2,9]
 x[3,0] x[3,1] x[3,2] x[3,3] x[3,4] x[3,5] x[3,6] x[3,7] x[3,8] x[3,9]
 x[4,0] x[4,1] x[4,2] x[4,3] x[4,4] x[4,5] x[4,6] x[4,7] x[4,8] x[4,9]
 x[5,0] x[5,1] x[5,2] x[5,3] x[5,4] x[5,5] x[5,6] x[5,7] x[5,8] x[5,9]
 x[6,0] x[6,1] x[6,2] x[6,3] x[6,4] x[6,5] x[6,6] x[6,7] x[6,8] x[6,9]
 x[7,0] x[7,1] x[7,2] x[7,3] x[7,4] x[7,5] x[7,6] x[7,7] x[7,8] x[7,9]
 x[8,0] x[8,1] x[8,2] x[8,3] x[8,4] x[8,5] x[8,6] x[8,7] x[8,8] x[8,9] s[0]
 s[1] s[2] s[3] s[4] s[5] s[6] s[7] s[8]
Generals
 b
End
